
  22   10
  10   10   10   10   10   10   10   10   10   10

   0   0   0   0   0   0   0   0   0   0   0  15 2 3 4 10 11 12 13 14 15 16 17 18 19 20 21 
  10   0   0   0  10   0   0   0   0   0   0   3 9 8 7 
  10   0   0   0   0  10   0   0   0   0   0   1 6 
   1   0   0   0   0   0   0   0   0  10   0   1 5 
   4   0   0   0  10   0   0   0   0   0   0   1 22
   4   0   0   0   0   0   0   0  10   0   0   1 22
  10   0  10   0   0   0   0   0   0   0   0   1 22
   3   0   0   0   0   0   0   0   0  10   0   1 22
  10   0   0   0   0   0   0  10   0   0   0   1 22
   2   0   0   0   0   0   0  10   0   0   0   1 22
   1   0   0   0   0   0  10   0   0   0   0   1 22
   1   0   0  10   0   0   0   0   0   0   0   1 22
   5   0   0   0   0   0   0   0  10   0   0   1 22
   2   0   0   0   0  10   0   0   0   0   0   1 22
   5   0   0   0   0  10   0   0   0   0   0   1 22
  10   0   0   0   0   0   0   0   0  10   0   1 22
   5   0   0   0   0   0   0  10   0   0   0   1 22
   9  10   0   0   0   0   0   0   0   0   0   1 22
   7   0   0  10   0   0   0   0   0   0   0   1 22
   4   0   0   0   0   0   0  10   0   0   0   1 22
   1   0   0   0   0   0   0   0  10   0   0   1 22
   0   0   0   0   0   0   0   0   0   0   0   0 
